&control
 calculation='nscf',
 restart_mode='from_scratch',
 prefix='tmp'
 pseudo_dir ='../../pseudo_u',
 outdir='./TaB',
 etot_conv_thr=1.0D-4,
 forc_conv_thr=1.0D-3,
/
&system
 ibrav= 0,
 nat=80, ntyp=6,
 ecutwfc = 80.0,
 occupations='smearing', smearing='mp', degauss=0.01,
/
&electrons
 mixing_beta = 0.3,
 conv_thr = 1.0d-8,
 electron_maxstep = 10000,
 diagonalization = 'cg',
/
&ions
 ion_dynamics = 'bfgs',
/
&CELL
   cell_dynamics = 'bfgs',
/
CELL_PARAMETERS (angstrom}
  10.118243803  -0.001876847  -0.000313247
  -0.001876781  10.118182861   0.001707270
  -0.000280611   0.001535389   9.064931312


ATOMIC_SPECIES

Ta    180.947  Ta.pbe-spn-rrkjus_psl.1.0.0.UPF
Ti    47.867  Ti.pbe-spn-rrkjus_psl.1.0.0.UPF
Hf    178.49  Hf.pbe-spn-rrkjus_psl.1.0.0.UPF
Zr    91.224  Zr.pbe-spn-rrkjus_psl.1.0.0.UPF
Nb    92.906  Nb.pbe-spn-rrkjus_psl.1.0.0.UPF
C     12.011  C.pbe-n-rrkjus_psl.0.1.UPF

ATOMIC_POSITIONS {crystal}
Nb               0.2050817645        0.6004074612        0.4987975983
Nb               0.1997888743        0.5970777237        1.0005743028
Nb               0.8007457505        0.4029131619        0.9994322907
Nb               0.4014202185        0.6991749351        0.2502888314
Nb               0.3031347110        0.3990918688        0.2480376056
Nb               0.5003642323        0.9985958883        0.2475421090
Nb               0.6970979926        0.5997730467        0.7519682851
Nb               0.8973126155        0.7005912348        1.0002366084
Ta               0.5966025432        0.7988480454        0.4981657495
Ta               0.5977673175        0.3015592522        0.2481670856
Ta               0.7975173515        0.8989342608        0.7516559422
Ta               0.6970551356        0.6019280426        0.2485601391
Ta               0.8998629747        0.2004212148        0.2484249089
Ta               0.3037703141        0.3968291867        0.7525900392
Ta               0.4972334877        1.0019694404        0.7526971359
Ta               0.3009554349        0.9008411171        0.9991994446
Zr               0.4007525321        0.1994671665        0.5019348993
Zr               0.9997540552        0.9984856101        0.5000549434
Zr               1.0013209851        0.5003000299        0.2483691602
Zr               0.4019971028        0.7003241597        0.7493350410
Zr               0.8995698923        0.2015164696        0.7520938288
Zr               0.1035214047        0.2991420157        0.5009462635
Zr               0.6972034552        0.1004808905        0.4993905325
Zr               0.6973771447        0.0991217160        1.0005377835
Hf               0.7977250381        0.4031009819        0.5004019160
Hf               1.0004703718        1.0009078979        0.9999529767
Hf               0.2034561717        0.0993282735        0.2477586626
Hf               1.0007534152        0.5001456771        0.7515183165
Hf               0.1005235993        0.8003104010        0.2494250729
Hf               0.1019974744        0.7994963758        0.7503813819
Hf               0.8980658745        0.7007377254        0.4996274024
Hf               0.5002974971        0.5005024590        0.9993560861
Ti               0.5999433483        0.7980696702        1.0015503520
Ti               0.3987329300        0.2015060108        0.9983803841
Ti               0.7959662553        0.8994814155        0.2480339942
Ti               0.2017381005        0.1000362236        0.7528065873
Ti               0.5987200370        0.3006741608        0.7525641528
Ti               0.5007046502        0.4994111780        0.5003382003
Ti               0.3004908270        0.9000317273        0.5003156040
Ti               0.1030781297        0.2989182143        0.9990507773
C                0.1010586330        0.2980669819        0.2436984137
C                0.5012501779        0.4995262284        0.2523959215
C                0.3037114050        0.8979538520        0.2487219502
C                0.8938801787        0.7035595732        0.2474530077
C                0.7001353144        0.1012295639        0.2492584350
C                0.1077092994        0.2994679802        0.7568591513
C                0.5010075876        0.4950994344        0.7476639107
C                0.3010189501        0.9051944968        0.7519577298
C                0.8968010478        0.7016944944        0.7523218937
C                0.6945487348        0.0973571543        0.7508674269
C                0.9027539451        0.2041785205        1.0050891000
C                0.2999494733        0.3960846772        0.9987777364
C                0.1026809643        0.7990597557        1.0001058653
C                0.6984443457        0.6037441251        1.0017398202
C                0.4955793076        0.9973834261        0.9984602579
C                0.8988737154        0.2018416864        0.4940592619
C                0.3053979639        0.4050412851        0.5015962926
C                0.1054208607        0.7972620561        0.4996668768
C                0.6937615873        0.6022716590        0.4977204613
C                0.4967758850        0.9928331652        0.5015771304
C                0.2048305257        0.1016558412        0.9961817356
C                0.5972924729        0.3010923925        1.0007671742
C                0.4013307311        0.7041373477        1.0036045874
C                1.0003995704        0.4979991779        0.9980965884
C                0.7970407877        0.8945738470        0.9996008697
C                0.2038626627        0.0938288196        0.5028748526
C                0.5977639423        0.3067632655        0.4978874495
C                0.4029434109        0.7006841303        0.4962099008
C                1.0014320792        0.5025616393        0.5016572276
C                0.7935740059        0.8962226673        0.5008062828
C                0.9953481017        1.0014971621        0.2474483066
C                0.4033680560        0.2000503623        0.2439866150
C                0.2044994853        0.6000810227        0.2492679541
C                0.7955244690        0.3998232710        0.2475107088
C                0.6018856543        0.8002983168        0.2493011176
C                1.0002723755        0.9978832769        0.7528667516
C                0.4004262224        0.1988114691        0.7567017285
C                0.2013982230        0.5961170815        0.7511612751
C                0.7935260872        0.4028715996        0.7530743106
C                0.6026507490        0.8037448624        0.7505415244


K_POINTS {automatic}

8 8 8 0 0 0
